(set-logic QF_NRA)
(set-info :source |
From termination analysis of term rewriting.

Submitted by Harald Roman Zankl <Harald.Zankl@uibk.ac.at>

|)
(set-info :smt-lib-version 2.0)
(set-info :category "industrial")
(set-info :status sat)
(declare-fun x6 () Real)
(declare-fun x23 () Real)
(declare-fun x40 () Real)
(declare-fun x13 () Real)
(declare-fun x30 () Real)
(declare-fun x3 () Real)
(declare-fun x20 () Real)
(declare-fun x37 () Real)
(declare-fun x10 () Real)
(declare-fun x27 () Real)
(declare-fun x44 () Real)
(declare-fun x0 () Real)
(declare-fun x17 () Real)
(declare-fun x34 () Real)
(declare-fun x7 () Real)
(declare-fun x24 () Real)
(declare-fun x41 () Real)
(declare-fun x14 () Real)
(declare-fun x31 () Real)
(declare-fun x4 () Real)
(declare-fun x21 () Real)
(declare-fun x38 () Real)
(declare-fun x11 () Real)
(declare-fun x28 () Real)
(declare-fun x45 () Real)
(declare-fun x1 () Real)
(declare-fun x18 () Real)
(declare-fun x35 () Real)
(declare-fun x8 () Real)
(declare-fun x25 () Real)
(declare-fun x42 () Real)
(declare-fun x15 () Real)
(declare-fun x32 () Real)
(declare-fun x5 () Real)
(declare-fun x22 () Real)
(declare-fun x39 () Real)
(declare-fun x12 () Real)
(declare-fun x29 () Real)
(declare-fun x46 () Real)
(declare-fun x2 () Real)
(declare-fun x19 () Real)
(declare-fun x36 () Real)
(declare-fun x9 () Real)
(declare-fun x26 () Real)
(declare-fun x43 () Real)
(declare-fun x16 () Real)
(declare-fun x33 () Real)
(assert (>= x6 0))
(assert (>= x23 0))
(assert (>= x40 0))
(assert (>= x13 0))
(assert (>= x30 0))
(assert (>= x3 0))
(assert (>= x20 0))
(assert (>= x37 0))
(assert (>= x10 0))
(assert (>= x27 0))
(assert (>= x44 0))
(assert (>= x0 0))
(assert (>= x17 0))
(assert (>= x34 0))
(assert (>= x7 0))
(assert (>= x24 0))
(assert (>= x41 0))
(assert (>= x14 0))
(assert (>= x31 0))
(assert (>= x4 0))
(assert (>= x21 0))
(assert (>= x38 0))
(assert (>= x11 0))
(assert (>= x28 0))
(assert (>= x45 0))
(assert (>= x1 0))
(assert (>= x18 0))
(assert (>= x35 0))
(assert (>= x8 0))
(assert (>= x25 0))
(assert (>= x42 0))
(assert (>= x15 0))
(assert (>= x32 0))
(assert (>= x5 0))
(assert (>= x22 0))
(assert (>= x39 0))
(assert (>= x12 0))
(assert (>= x29 0))
(assert (>= x46 0))
(assert (>= x2 0))
(assert (>= x19 0))
(assert (>= x36 0))
(assert (>= x9 0))
(assert (>= x26 0))
(assert (>= x43 0))
(assert (>= x16 0))
(assert (>= x33 0))
(assert (and (and (and (and (and (and (and (and (and (not (<= (+ (* x4 x1) (* x5 x2) (* x6 x3) (* x7 x4 x1) (* x1 x8 x5) (* x6 x1 x9) (* x10 x4 x2) (* x11 x5 x2) (* x6 x12 x2) (* x13 x3 x4) (* x3 x14 x5) (* x6 x3 x15)) 0)) (>= (+ (* x4 x1) (* x5 x2) (* x6 x3) (* x7 x4 x1) (* x1 x8 x5) (* x6 x1 x9) (* x10 x4 x2) (* x11 x5 x2) (* x6 x12 x2) (* x13 x3 x4) (* x3 x14 x5) (* x6 x3 x15)) 0)) (and (and (>= (+ (* (- 1) x1) (* x7 x7 x1) (* x10 x1 x8) (* x13 x1 x9) (* x10 x7 x2) (* x10 x11 x2) (* x13 x12 x2) (* x13 x3 x7) (* x3 x10 x14) (* x13 x3 x15)) 0) (>= (+ (* (- 1) x2) (* x7 x1 x8) (* x11 x1 x8) (* x14 x1 x9) (* x10 x8 x2) (* x11 x11 x2) (* x14 x12 x2) (* x13 x3 x8) (* x3 x14 x11) (* x3 x14 x15)) 0)) (>= (+ (* (- 1) x3) (* x7 x1 x9) (* x1 x8 x12) (* x1 x15 x9) (* x10 x2 x9) (* x11 x12 x2) (* x15 x12 x2) (* x13 x3 x9) (* x3 x14 x12) (* x3 x15 x15)) 0))) (and (and (not (<= (+ (* (- 1) x0) x16 (* x17 x4) (* x18 x5) (* x6 x19) (* x17 x7 x4) (* x17 x8 x5) (* x6 x17 x9) (* x10 x4 x18) (* x11 x18 x5) (* x6 x18 x12) (* x13 x4 x19) (* x14 x5 x19) (* x6 x15 x19)) 0)) (>= (+ (* (- 1) x0) x16 (* x17 x4) (* x18 x5) (* x6 x19) (* x17 x7 x4) (* x17 x8 x5) (* x6 x17 x9) (* x10 x4 x18) (* x11 x18 x5) (* x6 x18 x12) (* x13 x4 x19) (* x14 x5 x19) (* x6 x15 x19)) 0)) (and (and (>= (+ (* (- 1) x1) (* x17 x7 x7) (* x10 x17 x8) (* x13 x17 x9) (* x10 x7 x18) (* x10 x11 x18) (* x13 x18 x12) (* x13 x7 x19) (* x10 x14 x19) (* x13 x15 x19)) 0) (>= (+ (* (- 1) x2) (* x17 x7 x8) (* x17 x11 x8) (* x17 x14 x9) (* x10 x18 x8) (* x11 x11 x18) (* x14 x18 x12) (* x13 x8 x19) (* x14 x11 x19) (* x14 x15 x19)) 0)) (>= (+ (* (- 1) x3) (* x17 x7 x9) (* x17 x8 x12) (* x17 x15 x9) (* x10 x18 x9) (* x11 x18 x12) (* x18 x15 x12) (* x13 x19 x9) (* x14 x12 x19) (* x15 x15 x19)) 0)))) (and (and (not (<= (+ (* x17 x7 x4) (* x17 x8 x5) (* x6 x17 x9) (* x10 x4 x18) (* x11 x18 x5) (* x6 x18 x12) (* x13 x4 x19) (* x14 x5 x19) (* x6 x15 x19) (* (- 1) (* x20 x17 x7)) (* (- 1) (* x17 x21 x8)) (* (- 1) (* x17 x22 x9)) (* (- 1) (* x20 x10 x18)) (* (- 1) (* x21 x11 x18)) (* (- 1) (* x18 x22 x12)) (* (- 1) (* x13 x20 x19)) (* (- 1) (* x14 x21 x19)) (* (- 1) (* x15 x22 x19))) 0)) (>= (+ (* x17 x7 x4) (* x17 x8 x5) (* x6 x17 x9) (* x10 x4 x18) (* x11 x18 x5) (* x6 x18 x12) (* x13 x4 x19) (* x14 x5 x19) (* x6 x15 x19) (* (- 1) (* x20 x17 x7)) (* (- 1) (* x17 x21 x8)) (* (- 1) (* x17 x22 x9)) (* (- 1) (* x20 x10 x18)) (* (- 1) (* x21 x11 x18)) (* (- 1) (* x18 x22 x12)) (* (- 1) (* x13 x20 x19)) (* (- 1) (* x14 x21 x19)) (* (- 1) (* x15 x22 x19))) 0)) (and (and (>= (+ (* x17 x7 x7) (* x10 x17 x8) (* x13 x17 x9) (* x10 x7 x18) (* x10 x11 x18) (* x13 x18 x12) (* x13 x7 x19) (* x10 x14 x19) (* x13 x15 x19) (* (- 1) (* x17 x8 x26)) (* (- 1) (* x23 x17 x7)) (* (- 1) (* x17 x29 x9)) (* (- 1) (* x11 x18 x26)) (* (- 1) (* x18 x12 x29)) (* (- 1) (* x23 x10 x18)) (* (- 1) (* x14 x19 x26)) (* (- 1) (* x15 x29 x19)) (* (- 1) (* x23 x13 x19))) 0) (>= (+ (* x17 x7 x8) (* x17 x11 x8) (* x17 x14 x9) (* x10 x18 x8) (* x11 x11 x18) (* x14 x18 x12) (* x13 x8 x19) (* x14 x11 x19) (* x14 x15 x19) (* (- 1) (* x17 x7 x24)) (* (- 1) (* x27 x17 x8)) (* (- 1) (* x30 x17 x9)) (* (- 1) (* x10 x24 x18)) (* (- 1) (* x27 x11 x18)) (* (- 1) (* x30 x18 x12)) (* (- 1) (* x13 x24 x19)) (* (- 1) (* x27 x14 x19)) (* (- 1) (* x30 x15 x19))) 0)) (>= (+ (* x17 x7 x9) (* x17 x8 x12) (* x17 x15 x9) (* x10 x18 x9) (* x11 x18 x12) (* x18 x15 x12) (* x13 x19 x9) (* x14 x12 x19) (* x15 x15 x19) (* (- 1) (* x17 x7 x25)) (* (- 1) (* x17 x28 x8)) (* (- 1) (* x17 x31 x9)) (* (- 1) (* x10 x18 x25)) (* (- 1) (* x11 x28 x18)) (* (- 1) (* x31 x18 x12)) (* (- 1) (* x13 x25 x19)) (* (- 1) (* x14 x28 x19)) (* (- 1) (* x31 x15 x19))) 0)))) (and (not (<= (+ x20 (* (- 1) x32) (* x23 x32) (* x24 x33) (* x34 x25)) 0)) (and (and (>= (+ x20 (* (- 1) x32) (* x23 x32) (* x24 x33) (* x34 x25)) 0) (>= (+ x21 (* (- 1) x33) (* x27 x33) (* x32 x26) (* x34 x28)) 0)) (>= (+ (* (- 1) x34) x22 (* x30 x33) (* x32 x29) (* x34 x31)) 0)))) (and (and (not (<= (+ x20 (* (- 1) x4) (* (- 1) (* x20 x7)) (* (- 1) (* x21 x8)) (* (- 1) (* x22 x9)) (* x23 x4) (* x24 x5) (* x6 x25) (* x23 x7 x4) (* x23 x8 x5) (* x6 x23 x9) (* x10 x24 x4) (* x24 x11 x5) (* x6 x24 x12) (* x13 x4 x25) (* x14 x25 x5) (* x6 x25 x15)) 0)) (and (and (>= (+ x20 (* (- 1) x4) (* (- 1) (* x20 x7)) (* (- 1) (* x21 x8)) (* (- 1) (* x22 x9)) (* x23 x4) (* x24 x5) (* x6 x25) (* x23 x7 x4) (* x23 x8 x5) (* x6 x23 x9) (* x10 x24 x4) (* x24 x11 x5) (* x6 x24 x12) (* x13 x4 x25) (* x14 x25 x5) (* x6 x25 x15)) 0) (>= (+ x21 (* (- 1) x5) (* (- 1) (* x20 x10)) (* (- 1) (* x21 x11)) (* (- 1) (* x22 x12)) (* x4 x26) (* x27 x5) (* x6 x28) (* x7 x4 x26) (* x8 x5 x26) (* x6 x9 x26) (* x10 x27 x4) (* x27 x11 x5) (* x6 x27 x12) (* x13 x4 x28) (* x14 x28 x5) (* x6 x28 x15)) 0)) (>= (+ (* (- 1) x6) x22 (* (- 1) (* x13 x20)) (* (- 1) (* x14 x21)) (* (- 1) (* x15 x22)) (* x4 x29) (* x30 x5) (* x6 x31) (* x7 x4 x29) (* x8 x5 x29) (* x6 x29 x9) (* x30 x10 x4) (* x30 x11 x5) (* x6 x30 x12) (* x13 x31 x4) (* x14 x31 x5) (* x6 x31 x15)) 0))) (and (and (and (and (and (and (and (and (>= (+ (* (- 1) (* x8 x26)) (* (- 1) (* x23 x7)) (* (- 1) (* x29 x9)) (* x23 x7 x7) (* x23 x10 x8) (* x23 x13 x9) (* x10 x7 x24) (* x10 x24 x11) (* x13 x24 x12) (* x13 x7 x25) (* x10 x14 x25) (* x13 x25 x15)) 0) (>= (+ (* (- 1) (* x7 x24)) (* (- 1) (* x27 x8)) (* (- 1) (* x30 x9)) (* x23 x7 x8) (* x23 x11 x8) (* x23 x14 x9) (* x10 x24 x8) (* x24 x11 x11) (* x24 x14 x12) (* x13 x8 x25) (* x14 x11 x25) (* x14 x25 x15)) 0)) (>= (+ (* (- 1) (* x7 x25)) (* (- 1) (* x28 x8)) (* (- 1) (* x31 x9)) (* x23 x7 x9) (* x23 x8 x12) (* x23 x15 x9) (* x10 x24 x9) (* x24 x11 x12) (* x24 x15 x12) (* x13 x25 x9) (* x14 x25 x12) (* x25 x15 x15)) 0)) (>= (+ (* (- 1) (* x11 x26)) (* (- 1) (* x12 x29)) (* (- 1) (* x23 x10)) (* x7 x7 x26) (* x10 x8 x26) (* x13 x9 x26) (* x10 x27 x7) (* x10 x27 x11) (* x13 x27 x12) (* x13 x7 x28) (* x10 x14 x28) (* x13 x28 x15)) 0)) (>= (+ (* (- 1) (* x10 x24)) (* (- 1) (* x27 x11)) (* (- 1) (* x30 x12)) (* x7 x8 x26) (* x11 x8 x26) (* x14 x9 x26) (* x10 x27 x8) (* x27 x11 x11) (* x27 x14 x12) (* x13 x28 x8) (* x14 x11 x28) (* x14 x28 x15)) 0)) (>= (+ (* (- 1) (* x10 x25)) (* (- 1) (* x11 x28)) (* (- 1) (* x31 x12)) (* x7 x9 x26) (* x8 x12 x26) (* x15 x9 x26) (* x10 x27 x9) (* x27 x11 x12) (* x27 x15 x12) (* x13 x28 x9) (* x14 x28 x12) (* x28 x15 x15)) 0)) (>= (+ (* (- 1) (* x14 x26)) (* (- 1) (* x15 x29)) (* (- 1) (* x23 x13)) (* x7 x7 x29) (* x10 x8 x29) (* x13 x29 x9) (* x30 x10 x7) (* x30 x10 x11) (* x13 x30 x12) (* x13 x7 x31) (* x10 x14 x31) (* x13 x31 x15)) 0)) (>= (+ (* (- 1) (* x13 x24)) (* (- 1) (* x27 x14)) (* (- 1) (* x30 x15)) (* x7 x8 x29) (* x11 x8 x29) (* x14 x29 x9) (* x30 x10 x8) (* x30 x11 x11) (* x30 x14 x12) (* x13 x31 x8) (* x14 x31 x11) (* x14 x31 x15)) 0)) (>= (+ (* (- 1) (* x13 x25)) (* (- 1) (* x14 x28)) (* (- 1) (* x31 x15)) (* x7 x29 x9) (* x8 x12 x29) (* x15 x29 x9) (* x30 x10 x9) (* x30 x11 x12) (* x30 x15 x12) (* x13 x31 x9) (* x14 x31 x12) (* x31 x15 x15)) 0)))) (and (not (<= (+ x35 (* (- 1) x32) (* x4 x38) (* x5 x39) (* x6 x40) (* x7 x38 x32) (* x38 x8 x33) (* x34 x38 x9) (* x10 x32 x39) (* x11 x39 x33) (* x34 x39 x12) (* x40 x13 x32) (* x40 x14 x33) (* x40 x34 x15)) 0)) (and (and (>= (+ x35 (* (- 1) x32) (* x4 x38) (* x5 x39) (* x6 x40) (* x7 x38 x32) (* x38 x8 x33) (* x34 x38 x9) (* x10 x32 x39) (* x11 x39 x33) (* x34 x39 x12) (* x40 x13 x32) (* x40 x14 x33) (* x40 x34 x15)) 0) (>= (+ x36 (* (- 1) x33) (* x41 x4) (* x42 x5) (* x6 x43) (* x7 x41 x32) (* x41 x8 x33) (* x34 x41 x9) (* x10 x42 x32) (* x11 x42 x33) (* x34 x42 x12) (* x13 x32 x43) (* x14 x43 x33) (* x34 x15 x43)) 0)) (>= (+ x37 (* (- 1) x34) (* x44 x4) (* x45 x5) (* x6 x46) (* x44 x7 x32) (* x44 x8 x33) (* x44 x34 x9) (* x10 x45 x32) (* x11 x45 x33) (* x34 x45 x12) (* x13 x32 x46) (* x14 x46 x33) (* x34 x15 x46)) 0)))) (and (and (not (<= (+ (* (- 1) x4) x35 (* x4 x38) (* x5 x39) (* x6 x40) (* (- 1) (* x7 x35)) (* (- 1) (* x8 x36)) (* (- 1) (* x37 x9)) (* x38 x8 x5) (* x6 x38 x9) (* x10 x4 x39) (* x11 x5 x39) (* x6 x39 x12) (* x40 x13 x4) (* x40 x14 x5) (* x6 x40 x15) (* (- 1) (* x7 x5 x39)) (* (- 1) (* x6 x40 x7)) (* (- 1) (* x41 x4 x8)) (* (- 1) (* x8 x42 x5)) (* (- 1) (* x6 x8 x43)) (* (- 1) (* x44 x4 x9)) (* (- 1) (* x45 x5 x9)) (* (- 1) (* x6 x46 x9)) (* (- 1) (* x20 x7 x7 x38)) (* (- 1) (* x7 x21 x38 x8)) (* (- 1) (* x7 x38 x22 x9)) (* (- 1) (* x20 x10 x7 x39)) (* (- 1) (* x7 x21 x11 x39)) (* (- 1) (* x7 x22 x39 x12)) (* (- 1) (* x40 x13 x20 x7)) (* (- 1) (* x40 x7 x14 x21)) (* (- 1) (* x40 x7 x15 x22)) (* (- 1) (* x20 x7 x41 x8)) (* (- 1) (* x41 x21 x8 x8)) (* (- 1) (* x41 x8 x22 x9)) (* (- 1) (* x20 x10 x8 x42)) (* (- 1) (* x21 x11 x8 x42)) (* (- 1) (* x8 x42 x22 x12)) (* (- 1) (* x13 x20 x8 x43)) (* (- 1) (* x14 x21 x8 x43)) (* (- 1) (* x8 x15 x22 x43)) (* (- 1) (* x20 x44 x7 x9)) (* (- 1) (* x44 x21 x8 x9)) (* (- 1) (* x44 x22 x9 x9)) (* (- 1) (* x20 x10 x45 x9)) (* (- 1) (* x21 x11 x45 x9)) (* (- 1) (* x45 x22 x12 x9)) (* (- 1) (* x13 x20 x46 x9)) (* (- 1) (* x14 x21 x46 x9)) (* (- 1) (* x15 x22 x46 x9))) 0)) (and (and (>= (+ (* (- 1) x4) x35 (* x4 x38) (* x5 x39) (* x6 x40) (* (- 1) (* x7 x35)) (* (- 1) (* x8 x36)) (* (- 1) (* x37 x9)) (* x38 x8 x5) (* x6 x38 x9) (* x10 x4 x39) (* x11 x5 x39) (* x6 x39 x12) (* x40 x13 x4) (* x40 x14 x5) (* x6 x40 x15) (* (- 1) (* x7 x5 x39)) (* (- 1) (* x6 x40 x7)) (* (- 1) (* x41 x4 x8)) (* (- 1) (* x8 x42 x5)) (* (- 1) (* x6 x8 x43)) (* (- 1) (* x44 x4 x9)) (* (- 1) (* x45 x5 x9)) (* (- 1) (* x6 x46 x9)) (* (- 1) (* x20 x7 x7 x38)) (* (- 1) (* x7 x21 x38 x8)) (* (- 1) (* x7 x38 x22 x9)) (* (- 1) (* x20 x10 x7 x39)) (* (- 1) (* x7 x21 x11 x39)) (* (- 1) (* x7 x22 x39 x12)) (* (- 1) (* x40 x13 x20 x7)) (* (- 1) (* x40 x7 x14 x21)) (* (- 1) (* x40 x7 x15 x22)) (* (- 1) (* x20 x7 x41 x8)) (* (- 1) (* x41 x21 x8 x8)) (* (- 1) (* x41 x8 x22 x9)) (* (- 1) (* x20 x10 x8 x42)) (* (- 1) (* x21 x11 x8 x42)) (* (- 1) (* x8 x42 x22 x12)) (* (- 1) (* x13 x20 x8 x43)) (* (- 1) (* x14 x21 x8 x43)) (* (- 1) (* x8 x15 x22 x43)) (* (- 1) (* x20 x44 x7 x9)) (* (- 1) (* x44 x21 x8 x9)) (* (- 1) (* x44 x22 x9 x9)) (* (- 1) (* x20 x10 x45 x9)) (* (- 1) (* x21 x11 x45 x9)) (* (- 1) (* x45 x22 x12 x9)) (* (- 1) (* x13 x20 x46 x9)) (* (- 1) (* x14 x21 x46 x9)) (* (- 1) (* x15 x22 x46 x9))) 0) (>= (+ (* (- 1) x5) x36 (* x41 x4) (* x42 x5) (* x6 x43) (* (- 1) (* x10 x35)) (* (- 1) (* x11 x36)) (* (- 1) (* x37 x12)) (* x7 x41 x4) (* x41 x8 x5) (* x6 x41 x9) (* x10 x4 x42) (* x6 x42 x12) (* x13 x4 x43) (* x14 x5 x43) (* x6 x15 x43) (* (- 1) (* x10 x4 x38)) (* (- 1) (* x10 x5 x39)) (* (- 1) (* x6 x40 x10)) (* (- 1) (* x41 x4 x11)) (* (- 1) (* x6 x11 x43)) (* (- 1) (* x44 x4 x12)) (* (- 1) (* x45 x5 x12)) (* (- 1) (* x6 x12 x46)) (* (- 1) (* x20 x10 x7 x38)) (* (- 1) (* x10 x21 x38 x8)) (* (- 1) (* x10 x38 x22 x9)) (* (- 1) (* x20 x10 x10 x39)) (* (- 1) (* x10 x21 x11 x39)) (* (- 1) (* x10 x22 x39 x12)) (* (- 1) (* x40 x13 x20 x10)) (* (- 1) (* x40 x10 x14 x21)) (* (- 1) (* x40 x10 x15 x22)) (* (- 1) (* x20 x7 x41 x11)) (* (- 1) (* x41 x21 x11 x8)) (* (- 1) (* x41 x11 x22 x9)) (* (- 1) (* x20 x10 x11 x42)) (* (- 1) (* x21 x11 x11 x42)) (* (- 1) (* x11 x42 x22 x12)) (* (- 1) (* x13 x20 x11 x43)) (* (- 1) (* x14 x21 x11 x43)) (* (- 1) (* x11 x15 x22 x43)) (* (- 1) (* x20 x44 x7 x12)) (* (- 1) (* x44 x21 x8 x12)) (* (- 1) (* x44 x22 x12 x9)) (* (- 1) (* x20 x10 x45 x12)) (* (- 1) (* x21 x11 x45 x12)) (* (- 1) (* x45 x22 x12 x12)) (* (- 1) (* x13 x20 x12 x46)) (* (- 1) (* x14 x21 x12 x46)) (* (- 1) (* x15 x22 x12 x46))) 0)) (>= (+ (* (- 1) x6) x37 (* x44 x4) (* x45 x5) (* x6 x46) (* (- 1) (* x13 x35)) (* (- 1) (* x14 x36)) (* (- 1) (* x37 x15)) (* x44 x7 x4) (* x44 x8 x5) (* x6 x44 x9) (* x10 x4 x45) (* x11 x45 x5) (* x6 x45 x12) (* x13 x4 x46) (* x14 x5 x46) (* (- 1) (* x13 x4 x38)) (* (- 1) (* x13 x5 x39)) (* (- 1) (* x6 x40 x13)) (* (- 1) (* x41 x14 x4)) (* (- 1) (* x14 x42 x5)) (* (- 1) (* x6 x14 x43)) (* (- 1) (* x44 x4 x15)) (* (- 1) (* x45 x15 x5)) (* (- 1) (* x13 x20 x7 x38)) (* (- 1) (* x13 x21 x38 x8)) (* (- 1) (* x13 x38 x22 x9)) (* (- 1) (* x13 x20 x10 x39)) (* (- 1) (* x13 x21 x11 x39)) (* (- 1) (* x13 x22 x39 x12)) (* (- 1) (* x40 x13 x13 x20)) (* (- 1) (* x40 x13 x14 x21)) (* (- 1) (* x40 x13 x15 x22)) (* (- 1) (* x20 x7 x41 x14)) (* (- 1) (* x41 x14 x21 x8)) (* (- 1) (* x41 x14 x22 x9)) (* (- 1) (* x20 x10 x14 x42)) (* (- 1) (* x14 x21 x11 x42)) (* (- 1) (* x14 x42 x22 x12)) (* (- 1) (* x13 x20 x14 x43)) (* (- 1) (* x14 x14 x21 x43)) (* (- 1) (* x14 x15 x22 x43)) (* (- 1) (* x20 x44 x7 x15)) (* (- 1) (* x44 x21 x8 x15)) (* (- 1) (* x44 x15 x22 x9)) (* (- 1) (* x20 x10 x45 x15)) (* (- 1) (* x21 x11 x45 x15)) (* (- 1) (* x45 x15 x22 x12)) (* (- 1) (* x13 x20 x15 x46)) (* (- 1) (* x14 x21 x15 x46)) (* (- 1) (* x15 x15 x22 x46))) 0))) (and (and (and (and (and (and (and (and (>= (+ (* x7 x7 x38) (* x10 x38 x8) (* x13 x38 x9) (* x10 x7 x39) (* x10 x11 x39) (* x13 x39 x12) (* x40 x13 x7) (* x40 x10 x14) (* x40 x13 x15) (* (- 1) (* x7 x38 x8 x26)) (* (- 1) (* x23 x7 x7 x38)) (* (- 1) (* x7 x38 x29 x9)) (* (- 1) (* x7 x11 x39 x26)) (* (- 1) (* x7 x39 x12 x29)) (* (- 1) (* x23 x10 x7 x39)) (* (- 1) (* x40 x7 x14 x26)) (* (- 1) (* x40 x7 x15 x29)) (* (- 1) (* x23 x40 x13 x7)) (* (- 1) (* x41 x8 x8 x26)) (* (- 1) (* x23 x7 x41 x8)) (* (- 1) (* x41 x8 x29 x9)) (* (- 1) (* x11 x8 x42 x26)) (* (- 1) (* x8 x42 x12 x29)) (* (- 1) (* x23 x10 x8 x42)) (* (- 1) (* x14 x8 x26 x43)) (* (- 1) (* x8 x15 x29 x43)) (* (- 1) (* x23 x13 x8 x43)) (* (- 1) (* x44 x8 x9 x26)) (* (- 1) (* x23 x44 x7 x9)) (* (- 1) (* x44 x29 x9 x9)) (* (- 1) (* x11 x45 x9 x26)) (* (- 1) (* x45 x12 x29 x9)) (* (- 1) (* x23 x10 x45 x9)) (* (- 1) (* x14 x46 x9 x26)) (* (- 1) (* x15 x29 x46 x9)) (* (- 1) (* x23 x13 x46 x9))) 0) (>= (+ (* x7 x38 x8) (* x38 x11 x8) (* x14 x38 x9) (* x10 x8 x39) (* x11 x11 x39) (* x14 x39 x12) (* x40 x13 x8) (* x40 x14 x11) (* x40 x14 x15) (* (- 1) (* x7 x7 x24 x38)) (* (- 1) (* x27 x7 x38 x8)) (* (- 1) (* x30 x7 x38 x9)) (* (- 1) (* x10 x7 x24 x39)) (* (- 1) (* x27 x7 x11 x39)) (* (- 1) (* x30 x7 x39 x12)) (* (- 1) (* x40 x13 x7 x24)) (* (- 1) (* x40 x27 x7 x14)) (* (- 1) (* x40 x30 x7 x15)) (* (- 1) (* x7 x24 x41 x8)) (* (- 1) (* x27 x41 x8 x8)) (* (- 1) (* x30 x41 x8 x9)) (* (- 1) (* x10 x24 x8 x42)) (* (- 1) (* x27 x11 x8 x42)) (* (- 1) (* x30 x8 x42 x12)) (* (- 1) (* x13 x24 x8 x43)) (* (- 1) (* x27 x14 x8 x43)) (* (- 1) (* x30 x8 x15 x43)) (* (- 1) (* x44 x7 x24 x9)) (* (- 1) (* x27 x44 x8 x9)) (* (- 1) (* x30 x44 x9 x9)) (* (- 1) (* x10 x24 x45 x9)) (* (- 1) (* x27 x11 x45 x9)) (* (- 1) (* x30 x45 x12 x9)) (* (- 1) (* x13 x24 x46 x9)) (* (- 1) (* x27 x14 x46 x9)) (* (- 1) (* x30 x15 x46 x9))) 0)) (>= (+ (* x7 x38 x9) (* x38 x8 x12) (* x38 x15 x9) (* x10 x39 x9) (* x11 x39 x12) (* x15 x39 x12) (* x40 x13 x9) (* x40 x14 x12) (* x40 x15 x15) (* (- 1) (* x7 x7 x38 x25)) (* (- 1) (* x7 x38 x28 x8)) (* (- 1) (* x7 x31 x38 x9)) (* (- 1) (* x10 x7 x25 x39)) (* (- 1) (* x7 x11 x28 x39)) (* (- 1) (* x7 x31 x39 x12)) (* (- 1) (* x40 x13 x7 x25)) (* (- 1) (* x40 x7 x14 x28)) (* (- 1) (* x40 x7 x31 x15)) (* (- 1) (* x7 x41 x8 x25)) (* (- 1) (* x41 x28 x8 x8)) (* (- 1) (* x41 x31 x8 x9)) (* (- 1) (* x10 x8 x25 x42)) (* (- 1) (* x11 x28 x8 x42)) (* (- 1) (* x31 x8 x42 x12)) (* (- 1) (* x13 x8 x25 x43)) (* (- 1) (* x14 x28 x8 x43)) (* (- 1) (* x31 x8 x15 x43)) (* (- 1) (* x44 x7 x25 x9)) (* (- 1) (* x44 x28 x8 x9)) (* (- 1) (* x44 x31 x9 x9)) (* (- 1) (* x10 x45 x25 x9)) (* (- 1) (* x11 x28 x45 x9)) (* (- 1) (* x31 x45 x12 x9)) (* (- 1) (* x13 x25 x46 x9)) (* (- 1) (* x14 x28 x46 x9)) (* (- 1) (* x31 x15 x46 x9))) 0)) (>= (+ (* x7 x7 x41) (* x10 x41 x8) (* x13 x41 x9) (* x10 x7 x42) (* x10 x11 x42) (* x13 x42 x12) (* x13 x7 x43) (* x10 x14 x43) (* x13 x15 x43) (* (- 1) (* x10 x38 x8 x26)) (* (- 1) (* x23 x10 x7 x38)) (* (- 1) (* x10 x38 x29 x9)) (* (- 1) (* x10 x11 x39 x26)) (* (- 1) (* x10 x39 x12 x29)) (* (- 1) (* x23 x10 x10 x39)) (* (- 1) (* x40 x10 x14 x26)) (* (- 1) (* x40 x10 x15 x29)) (* (- 1) (* x23 x40 x13 x10)) (* (- 1) (* x41 x11 x8 x26)) (* (- 1) (* x23 x7 x41 x11)) (* (- 1) (* x41 x11 x29 x9)) (* (- 1) (* x11 x11 x42 x26)) (* (- 1) (* x11 x42 x12 x29)) (* (- 1) (* x23 x10 x11 x42)) (* (- 1) (* x14 x11 x26 x43)) (* (- 1) (* x11 x15 x29 x43)) (* (- 1) (* x23 x13 x11 x43)) (* (- 1) (* x44 x8 x12 x26)) (* (- 1) (* x23 x44 x7 x12)) (* (- 1) (* x44 x12 x29 x9)) (* (- 1) (* x11 x45 x12 x26)) (* (- 1) (* x45 x12 x12 x29)) (* (- 1) (* x23 x10 x45 x12)) (* (- 1) (* x14 x12 x46 x26)) (* (- 1) (* x15 x12 x29 x46)) (* (- 1) (* x23 x13 x12 x46))) 0)) (>= (+ (* x7 x41 x8) (* x41 x11 x8) (* x41 x14 x9) (* x10 x8 x42) (* x11 x11 x42) (* x14 x42 x12) (* x13 x8 x43) (* x14 x11 x43) (* x14 x15 x43) (* (- 1) (* x10 x7 x24 x38)) (* (- 1) (* x10 x27 x38 x8)) (* (- 1) (* x30 x10 x38 x9)) (* (- 1) (* x10 x10 x24 x39)) (* (- 1) (* x10 x27 x11 x39)) (* (- 1) (* x30 x10 x39 x12)) (* (- 1) (* x40 x13 x10 x24)) (* (- 1) (* x40 x10 x27 x14)) (* (- 1) (* x40 x30 x10 x15)) (* (- 1) (* x7 x24 x41 x11)) (* (- 1) (* x27 x41 x11 x8)) (* (- 1) (* x30 x41 x11 x9)) (* (- 1) (* x10 x24 x11 x42)) (* (- 1) (* x27 x11 x11 x42)) (* (- 1) (* x30 x11 x42 x12)) (* (- 1) (* x13 x24 x11 x43)) (* (- 1) (* x27 x14 x11 x43)) (* (- 1) (* x30 x11 x15 x43)) (* (- 1) (* x44 x7 x24 x12)) (* (- 1) (* x27 x44 x8 x12)) (* (- 1) (* x30 x44 x12 x9)) (* (- 1) (* x10 x24 x45 x12)) (* (- 1) (* x27 x11 x45 x12)) (* (- 1) (* x30 x45 x12 x12)) (* (- 1) (* x13 x24 x12 x46)) (* (- 1) (* x27 x14 x12 x46)) (* (- 1) (* x30 x15 x12 x46))) 0)) (>= (+ (* x7 x41 x9) (* x41 x8 x12) (* x41 x15 x9) (* x10 x42 x9) (* x11 x42 x12) (* x42 x15 x12) (* x13 x9 x43) (* x14 x12 x43) (* x15 x15 x43) (* (- 1) (* x10 x7 x38 x25)) (* (- 1) (* x10 x38 x28 x8)) (* (- 1) (* x10 x31 x38 x9)) (* (- 1) (* x10 x10 x25 x39)) (* (- 1) (* x10 x11 x28 x39)) (* (- 1) (* x10 x31 x39 x12)) (* (- 1) (* x40 x13 x10 x25)) (* (- 1) (* x40 x10 x14 x28)) (* (- 1) (* x40 x10 x31 x15)) (* (- 1) (* x7 x41 x11 x25)) (* (- 1) (* x41 x11 x28 x8)) (* (- 1) (* x41 x31 x11 x9)) (* (- 1) (* x10 x11 x25 x42)) (* (- 1) (* x11 x11 x28 x42)) (* (- 1) (* x31 x11 x42 x12)) (* (- 1) (* x13 x11 x25 x43)) (* (- 1) (* x14 x11 x28 x43)) (* (- 1) (* x31 x11 x15 x43)) (* (- 1) (* x44 x7 x25 x12)) (* (- 1) (* x44 x28 x8 x12)) (* (- 1) (* x44 x31 x12 x9)) (* (- 1) (* x10 x45 x25 x12)) (* (- 1) (* x11 x28 x45 x12)) (* (- 1) (* x31 x45 x12 x12)) (* (- 1) (* x13 x25 x12 x46)) (* (- 1) (* x14 x28 x12 x46)) (* (- 1) (* x31 x15 x12 x46))) 0)) (>= (+ (* x44 x7 x7) (* x10 x44 x8) (* x13 x44 x9) (* x10 x7 x45) (* x10 x11 x45) (* x13 x45 x12) (* x13 x7 x46) (* x10 x14 x46) (* x13 x15 x46) (* (- 1) (* x13 x38 x8 x26)) (* (- 1) (* x23 x13 x7 x38)) (* (- 1) (* x13 x38 x29 x9)) (* (- 1) (* x13 x11 x39 x26)) (* (- 1) (* x13 x39 x12 x29)) (* (- 1) (* x23 x13 x10 x39)) (* (- 1) (* x40 x13 x14 x26)) (* (- 1) (* x40 x13 x15 x29)) (* (- 1) (* x23 x40 x13 x13)) (* (- 1) (* x41 x14 x8 x26)) (* (- 1) (* x23 x7 x41 x14)) (* (- 1) (* x41 x14 x29 x9)) (* (- 1) (* x14 x11 x42 x26)) (* (- 1) (* x14 x42 x12 x29)) (* (- 1) (* x23 x10 x14 x42)) (* (- 1) (* x14 x14 x26 x43)) (* (- 1) (* x14 x15 x29 x43)) (* (- 1) (* x23 x13 x14 x43)) (* (- 1) (* x44 x8 x15 x26)) (* (- 1) (* x23 x44 x7 x15)) (* (- 1) (* x44 x15 x29 x9)) (* (- 1) (* x11 x45 x15 x26)) (* (- 1) (* x45 x15 x12 x29)) (* (- 1) (* x23 x10 x45 x15)) (* (- 1) (* x14 x15 x46 x26)) (* (- 1) (* x15 x15 x29 x46)) (* (- 1) (* x23 x13 x15 x46))) 0)) (>= (+ (* x44 x7 x8) (* x44 x11 x8) (* x44 x14 x9) (* x10 x45 x8) (* x11 x11 x45) (* x14 x45 x12) (* x13 x8 x46) (* x14 x11 x46) (* x14 x15 x46) (* (- 1) (* x13 x7 x24 x38)) (* (- 1) (* x13 x27 x38 x8)) (* (- 1) (* x13 x30 x38 x9)) (* (- 1) (* x13 x10 x24 x39)) (* (- 1) (* x13 x27 x11 x39)) (* (- 1) (* x13 x30 x39 x12)) (* (- 1) (* x40 x13 x13 x24)) (* (- 1) (* x40 x13 x27 x14)) (* (- 1) (* x40 x13 x30 x15)) (* (- 1) (* x7 x24 x41 x14)) (* (- 1) (* x27 x41 x14 x8)) (* (- 1) (* x30 x41 x14 x9)) (* (- 1) (* x10 x24 x14 x42)) (* (- 1) (* x27 x14 x11 x42)) (* (- 1) (* x30 x14 x42 x12)) (* (- 1) (* x13 x24 x14 x43)) (* (- 1) (* x27 x14 x14 x43)) (* (- 1) (* x30 x14 x15 x43)) (* (- 1) (* x44 x7 x24 x15)) (* (- 1) (* x27 x44 x8 x15)) (* (- 1) (* x30 x44 x15 x9)) (* (- 1) (* x10 x24 x45 x15)) (* (- 1) (* x27 x11 x45 x15)) (* (- 1) (* x30 x45 x15 x12)) (* (- 1) (* x13 x24 x15 x46)) (* (- 1) (* x27 x14 x15 x46)) (* (- 1) (* x30 x15 x15 x46))) 0)) (>= (+ (* x44 x7 x9) (* x44 x8 x12) (* x44 x15 x9) (* x10 x45 x9) (* x11 x45 x12) (* x45 x15 x12) (* x13 x46 x9) (* x14 x12 x46) (* x15 x15 x46) (* (- 1) (* x13 x7 x38 x25)) (* (- 1) (* x13 x38 x28 x8)) (* (- 1) (* x13 x31 x38 x9)) (* (- 1) (* x13 x10 x25 x39)) (* (- 1) (* x13 x11 x28 x39)) (* (- 1) (* x13 x31 x39 x12)) (* (- 1) (* x40 x13 x13 x25)) (* (- 1) (* x40 x13 x14 x28)) (* (- 1) (* x40 x13 x31 x15)) (* (- 1) (* x7 x41 x14 x25)) (* (- 1) (* x41 x14 x28 x8)) (* (- 1) (* x41 x14 x31 x9)) (* (- 1) (* x10 x14 x25 x42)) (* (- 1) (* x14 x11 x28 x42)) (* (- 1) (* x14 x31 x42 x12)) (* (- 1) (* x13 x14 x25 x43)) (* (- 1) (* x14 x14 x28 x43)) (* (- 1) (* x14 x31 x15 x43)) (* (- 1) (* x44 x7 x25 x15)) (* (- 1) (* x44 x28 x8 x15)) (* (- 1) (* x44 x31 x15 x9)) (* (- 1) (* x10 x45 x25 x15)) (* (- 1) (* x11 x28 x45 x15)) (* (- 1) (* x31 x45 x15 x12)) (* (- 1) (* x13 x25 x15 x46)) (* (- 1) (* x14 x28 x15 x46)) (* (- 1) (* x31 x15 x15 x46))) 0)))) (and (and (and (and (not (<= (+ (* x4 x1) (* x5 x2) (* x6 x3) (* x7 x4 x1) (* x1 x8 x5) (* x6 x1 x9) (* x10 x4 x2) (* x11 x5 x2) (* x6 x12 x2) (* x13 x3 x4) (* x3 x14 x5) (* x6 x3 x15)) 0)) (>= (+ (* x4 x1) (* x5 x2) (* x6 x3) (* x7 x4 x1) (* x1 x8 x5) (* x6 x1 x9) (* x10 x4 x2) (* x11 x5 x2) (* x6 x12 x2) (* x13 x3 x4) (* x3 x14 x5) (* x6 x3 x15)) 0)) (and (and (>= (+ (* (- 1) x1) (* x7 x7 x1) (* x10 x1 x8) (* x13 x1 x9) (* x10 x7 x2) (* x10 x11 x2) (* x13 x12 x2) (* x13 x3 x7) (* x3 x10 x14) (* x13 x3 x15)) 0) (>= (+ (* (- 1) x2) (* x7 x1 x8) (* x11 x1 x8) (* x14 x1 x9) (* x10 x8 x2) (* x11 x11 x2) (* x14 x12 x2) (* x13 x3 x8) (* x3 x14 x11) (* x3 x14 x15)) 0)) (>= (+ (* (- 1) x3) (* x7 x1 x9) (* x1 x8 x12) (* x1 x15 x9) (* x10 x2 x9) (* x11 x12 x2) (* x15 x12 x2) (* x13 x3 x9) (* x3 x14 x12) (* x3 x15 x15)) 0))) (and (and (not (<= (+ (* (- 1) x0) x16 (* x17 x4) (* x18 x5) (* x6 x19) (* x17 x7 x4) (* x17 x8 x5) (* x6 x17 x9) (* x10 x4 x18) (* x11 x18 x5) (* x6 x18 x12) (* x13 x4 x19) (* x14 x5 x19) (* x6 x15 x19)) 0)) (>= (+ (* (- 1) x0) x16 (* x17 x4) (* x18 x5) (* x6 x19) (* x17 x7 x4) (* x17 x8 x5) (* x6 x17 x9) (* x10 x4 x18) (* x11 x18 x5) (* x6 x18 x12) (* x13 x4 x19) (* x14 x5 x19) (* x6 x15 x19)) 0)) (and (and (>= (+ (* (- 1) x1) (* x17 x7 x7) (* x10 x17 x8) (* x13 x17 x9) (* x10 x7 x18) (* x10 x11 x18) (* x13 x18 x12) (* x13 x7 x19) (* x10 x14 x19) (* x13 x15 x19)) 0) (>= (+ (* (- 1) x2) (* x17 x7 x8) (* x17 x11 x8) (* x17 x14 x9) (* x10 x18 x8) (* x11 x11 x18) (* x14 x18 x12) (* x13 x8 x19) (* x14 x11 x19) (* x14 x15 x19)) 0)) (>= (+ (* (- 1) x3) (* x17 x7 x9) (* x17 x8 x12) (* x17 x15 x9) (* x10 x18 x9) (* x11 x18 x12) (* x18 x15 x12) (* x13 x19 x9) (* x14 x12 x19) (* x15 x15 x19)) 0)))) (and (and (not (<= (+ (* x17 x7 x4) (* x17 x8 x5) (* x6 x17 x9) (* x10 x4 x18) (* x11 x18 x5) (* x6 x18 x12) (* x13 x4 x19) (* x14 x5 x19) (* x6 x15 x19) (* (- 1) (* x20 x17 x7)) (* (- 1) (* x17 x21 x8)) (* (- 1) (* x17 x22 x9)) (* (- 1) (* x20 x10 x18)) (* (- 1) (* x21 x11 x18)) (* (- 1) (* x18 x22 x12)) (* (- 1) (* x13 x20 x19)) (* (- 1) (* x14 x21 x19)) (* (- 1) (* x15 x22 x19))) 0)) (>= (+ (* x17 x7 x4) (* x17 x8 x5) (* x6 x17 x9) (* x10 x4 x18) (* x11 x18 x5) (* x6 x18 x12) (* x13 x4 x19) (* x14 x5 x19) (* x6 x15 x19) (* (- 1) (* x20 x17 x7)) (* (- 1) (* x17 x21 x8)) (* (- 1) (* x17 x22 x9)) (* (- 1) (* x20 x10 x18)) (* (- 1) (* x21 x11 x18)) (* (- 1) (* x18 x22 x12)) (* (- 1) (* x13 x20 x19)) (* (- 1) (* x14 x21 x19)) (* (- 1) (* x15 x22 x19))) 0)) (and (and (>= (+ (* x17 x7 x7) (* x10 x17 x8) (* x13 x17 x9) (* x10 x7 x18) (* x10 x11 x18) (* x13 x18 x12) (* x13 x7 x19) (* x10 x14 x19) (* x13 x15 x19) (* (- 1) (* x17 x8 x26)) (* (- 1) (* x23 x17 x7)) (* (- 1) (* x17 x29 x9)) (* (- 1) (* x11 x18 x26)) (* (- 1) (* x18 x12 x29)) (* (- 1) (* x23 x10 x18)) (* (- 1) (* x14 x19 x26)) (* (- 1) (* x15 x29 x19)) (* (- 1) (* x23 x13 x19))) 0) (>= (+ (* x17 x7 x8) (* x17 x11 x8) (* x17 x14 x9) (* x10 x18 x8) (* x11 x11 x18) (* x14 x18 x12) (* x13 x8 x19) (* x14 x11 x19) (* x14 x15 x19) (* (- 1) (* x17 x7 x24)) (* (- 1) (* x27 x17 x8)) (* (- 1) (* x30 x17 x9)) (* (- 1) (* x10 x24 x18)) (* (- 1) (* x27 x11 x18)) (* (- 1) (* x30 x18 x12)) (* (- 1) (* x13 x24 x19)) (* (- 1) (* x27 x14 x19)) (* (- 1) (* x30 x15 x19))) 0)) (>= (+ (* x17 x7 x9) (* x17 x8 x12) (* x17 x15 x9) (* x10 x18 x9) (* x11 x18 x12) (* x18 x15 x12) (* x13 x19 x9) (* x14 x12 x19) (* x15 x15 x19) (* (- 1) (* x17 x7 x25)) (* (- 1) (* x17 x28 x8)) (* (- 1) (* x17 x31 x9)) (* (- 1) (* x10 x18 x25)) (* (- 1) (* x11 x28 x18)) (* (- 1) (* x31 x18 x12)) (* (- 1) (* x13 x25 x19)) (* (- 1) (* x14 x28 x19)) (* (- 1) (* x31 x15 x19))) 0))))))
(exit)
(check-sat)
